p cnf 479 2046
1 0
-2 0
-3 0
-4 0
-5 0
-6 0
43 7 0
-43 -7 0
-295 -296 0
-295 -297 0
-296 -297 0
-298 -299 0
-7 295 0
-7 298 0
-8 295 0
-8 299 0
-9 296 0
-9 298 0
-10 296 0
-10 299 0
-11 297 0
-11 298 0
-12 297 0
-12 299 0
-7 1 13 0
-7 1 49 0
-7 13 49 0
-8 2 14 0
-8 2 50 0
-8 14 50 0
-9 3 15 0
-9 3 51 0
-9 15 51 0
-10 4 16 0
-10 4 52 0
-10 16 52 0
-11 5 17 0
-11 5 53 0
-11 17 53 0
-12 6 18 0
-12 6 54 0
-12 18 54 0
-7 -1 -13 -49 0
-8 -2 -14 -50 0
-9 -3 -15 -51 0
-10 -4 -16 -52 0
-11 -5 -17 -53 0
-12 -6 -18 -54 0
-300 -301 0
-300 -302 0
-301 -302 0
-303 -304 0
-13 300 0
-13 303 0
-14 300 0
-14 304 0
-15 301 0
-15 303 0
-16 301 0
-16 304 0
-17 302 0
-17 303 0
-18 302 0
-18 304 0
-13 7 19 0
-13 7 55 0
-13 19 55 0
-14 8 20 0
-14 8 56 0
-14 20 56 0
-15 9 21 0
-15 9 57 0
-15 21 57 0
-16 10 22 0
-16 10 58 0
-16 22 58 0
-17 11 23 0
-17 11 59 0
-17 23 59 0
-18 12 24 0
-18 12 60 0
-18 24 60 0
-13 -7 -19 -55 0
-14 -8 -20 -56 0
-15 -9 -21 -57 0
-16 -10 -22 -58 0
-17 -11 -23 -59 0
-18 -12 -24 -60 0
-305 -306 0
-305 -307 0
-306 -307 0
-308 -309 0
-19 305 0
-19 308 0
-20 305 0
-20 309 0
-21 306 0
-21 308 0
-22 306 0
-22 309 0
-23 307 0
-23 308 0
-24 307 0
-24 309 0
-19 13 25 0
-19 13 61 0
-19 25 61 0
-20 14 26 0
-20 14 62 0
-20 26 62 0
-21 15 27 0
-21 15 63 0
-21 27 63 0
-22 16 28 0
-22 16 64 0
-22 28 64 0
-23 17 29 0
-23 17 65 0
-23 29 65 0
-24 18 30 0
-24 18 66 0
-24 30 66 0
-19 -13 -25 -61 0
-20 -14 -26 -62 0
-21 -15 -27 -63 0
-22 -16 -28 -64 0
-23 -17 -29 -65 0
-24 -18 -30 -66 0
25 0
-26 0
-27 0
-28 0
-29 0
-30 0
19 31 67 0
-19 -31 0
-19 -67 0
-31 -67 0
32 0
-31 0
-33 0
-34 0
-35 0
-36 0
26 38 74 0
-26 -38 0
-26 -74 0
-38 -74 0
-310 -311 0
-310 -312 0
-311 -312 0
-313 -314 0
-37 310 0
-37 313 0
-38 310 0
-38 314 0
-39 311 0
-39 313 0
-40 311 0
-40 314 0
-41 312 0
-41 313 0
-42 312 0
-42 314 0
-37 79 0
-37 31 0
-38 80 0
-38 32 0
-39 81 0
-39 33 0
-40 82 0
-40 34 0
-41 83 0
-41 35 0
-42 84 0
-42 36 0
48 0
-43 0
-44 0
-45 0
-46 0
-47 0
90 54 6 0
-90 -54 0
-90 -6 0
-54 -6 0
-315 -316 0
-315 -317 0
-316 -317 0
-318 -319 0
-49 315 0
-49 318 0
-50 315 0
-50 319 0
-51 316 0
-51 318 0
-52 316 0
-52 319 0
-53 317 0
-53 318 0
-54 317 0
-54 319 0
-49 91 55 7 0
-49 91 55 43 0
-49 91 7 43 0
-49 55 7 43 0
-50 92 56 8 0
-50 92 56 44 0
-50 92 8 44 0
-50 56 8 44 0
-51 93 57 9 0
-51 93 57 45 0
-51 93 9 45 0
-51 57 9 45 0
-52 94 58 10 0
-52 94 58 46 0
-52 94 10 46 0
-52 58 10 46 0
-53 95 59 11 0
-53 95 59 47 0
-53 95 11 47 0
-53 59 11 47 0
-54 96 60 12 0
-54 96 60 48 0
-54 96 12 48 0
-54 60 12 48 0
-49 -91 -55 -7 0
-49 -91 -55 -43 0
-49 -91 -7 -43 0
-49 -55 -7 -43 0
-50 -92 -56 -8 0
-50 -92 -56 -44 0
-50 -92 -8 -44 0
-50 -56 -8 -44 0
-51 -93 -57 -9 0
-51 -93 -57 -45 0
-51 -93 -9 -45 0
-51 -57 -9 -45 0
-52 -94 -58 -10 0
-52 -94 -58 -46 0
-52 -94 -10 -46 0
-52 -58 -10 -46 0
-53 -95 -59 -11 0
-53 -95 -59 -47 0
-53 -95 -11 -47 0
-53 -59 -11 -47 0
-54 -96 -60 -12 0
-54 -96 -60 -48 0
-54 -96 -12 -48 0
-54 -60 -12 -48 0
-320 -321 0
-320 -322 0
-321 -322 0
-323 -324 0
-55 320 0
-55 323 0
-56 320 0
-56 324 0
-57 321 0
-57 323 0
-58 321 0
-58 324 0
-59 322 0
-59 323 0
-60 322 0
-60 324 0
-55 97 61 13 0
-55 97 61 49 0
-55 97 13 49 0
-55 61 13 49 0
-56 98 62 14 0
-56 98 62 50 0
-56 98 14 50 0
-56 62 14 50 0
-57 99 63 15 0
-57 99 63 51 0
-57 99 15 51 0
-57 63 15 51 0
-58 100 64 16 0
-58 100 64 52 0
-58 100 16 52 0
-58 64 16 52 0
-59 101 65 17 0
-59 101 65 53 0
-59 101 17 53 0
-59 65 17 53 0
-60 102 66 18 0
-60 102 66 54 0
-60 102 18 54 0
-60 66 18 54 0
-55 -97 -61 -13 0
-55 -97 -61 -49 0
-55 -97 -13 -49 0
-55 -61 -13 -49 0
-56 -98 -62 -14 0
-56 -98 -62 -50 0
-56 -98 -14 -50 0
-56 -62 -14 -50 0
-57 -99 -63 -15 0
-57 -99 -63 -51 0
-57 -99 -15 -51 0
-57 -63 -15 -51 0
-58 -100 -64 -16 0
-58 -100 -64 -52 0
-58 -100 -16 -52 0
-58 -64 -16 -52 0
-59 -101 -65 -17 0
-59 -101 -65 -53 0
-59 -101 -17 -53 0
-59 -65 -17 -53 0
-60 -102 -66 -18 0
-60 -102 -66 -54 0
-60 -102 -18 -54 0
-60 -66 -18 -54 0
-325 -326 0
-325 -327 0
-326 -327 0
-328 -329 0
-61 325 0
-61 328 0
-62 325 0
-62 329 0
-63 326 0
-63 328 0
-64 326 0
-64 329 0
-65 327 0
-65 328 0
-66 327 0
-66 329 0
-61 103 67 19 0
-61 103 67 55 0
-61 103 19 55 0
-61 67 19 55 0
-62 104 68 20 0
-62 104 68 56 0
-62 104 20 56 0
-62 68 20 56 0
-63 105 69 21 0
-63 105 69 57 0
-63 105 21 57 0
-63 69 21 57 0
-64 106 70 22 0
-64 106 70 58 0
-64 106 22 58 0
-64 70 22 58 0
-65 107 71 23 0
-65 107 71 59 0
-65 107 23 59 0
-65 71 23 59 0
-66 108 72 24 0
-66 108 72 60 0
-66 108 24 60 0
-66 72 24 60 0
-61 -103 -67 -19 0
-61 -103 -67 -55 0
-61 -103 -19 -55 0
-61 -67 -19 -55 0
-62 -104 -68 -20 0
-62 -104 -68 -56 0
-62 -104 -20 -56 0
-62 -68 -20 -56 0
-63 -105 -69 -21 0
-63 -105 -69 -57 0
-63 -105 -21 -57 0
-63 -69 -21 -57 0
-64 -106 -70 -22 0
-64 -106 -70 -58 0
-64 -106 -22 -58 0
-64 -70 -22 -58 0
-65 -107 -71 -23 0
-65 -107 -71 -59 0
-65 -107 -23 -59 0
-65 -71 -23 -59 0
-66 -108 -72 -24 0
-66 -108 -72 -60 0
-66 -108 -24 -60 0
-66 -72 -24 -60 0
72 0
-67 0
-68 0
-69 0
-70 0
-71 0
114 78 30 66 0
-114 -78 0
-114 -30 0
-114 -66 0
-78 -30 0
-78 -66 0
-30 -66 0
75 0
-73 0
-74 0
-76 0
-77 0
-78 0
117 81 33 69 0
-117 -81 0
-117 -33 0
-117 -69 0
-81 -33 0
-81 -69 0
-33 -69 0
-330 -331 0
-330 -332 0
-331 -332 0
-333 -334 0
-79 330 0
-79 333 0
-80 330 0
-80 334 0
-81 331 0
-81 333 0
-82 331 0
-82 334 0
-83 332 0
-83 333 0
-84 332 0
-84 334 0
-79 121 73 0
-79 121 37 0
-79 73 37 0
-80 122 74 0
-80 122 38 0
-80 74 38 0
-81 123 75 0
-81 123 39 0
-81 75 39 0
-82 124 76 0
-82 124 40 0
-82 76 40 0
-83 125 77 0
-83 125 41 0
-83 77 41 0
-84 126 78 0
-84 126 42 0
-84 78 42 0
-79 -121 -73 -37 0
-80 -122 -74 -38 0
-81 -123 -75 -39 0
-82 -124 -76 -40 0
-83 -125 -77 -41 0
-84 -126 -78 -42 0
-335 -336 0
-335 -337 0
-336 -337 0
-338 -339 0
-85 335 0
-85 338 0
-86 335 0
-86 339 0
-87 336 0
-87 338 0
-88 336 0
-88 339 0
-89 337 0
-89 338 0
-90 337 0
-90 339 0
-85 127 91 0
-85 127 43 0
-85 91 43 0
-86 128 92 0
-86 128 44 0
-86 92 44 0
-87 129 93 0
-87 129 45 0
-87 93 45 0
-88 130 94 0
-88 130 46 0
-88 94 46 0
-89 131 95 0
-89 131 47 0
-89 95 47 0
-90 132 96 0
-90 132 48 0
-90 96 48 0
-85 -127 -91 -43 0
-86 -128 -92 -44 0
-87 -129 -93 -45 0
-88 -130 -94 -46 0
-89 -131 -95 -47 0
-90 -132 -96 -48 0
-340 -341 0
-340 -342 0
-341 -342 0
-343 -344 0
-91 340 0
-91 343 0
-92 340 0
-92 344 0
-93 341 0
-93 343 0
-94 341 0
-94 344 0
-95 342 0
-95 343 0
-96 342 0
-96 344 0
-91 133 97 49 0
-91 133 97 85 0
-91 133 49 85 0
-91 97 49 85 0
-92 134 98 50 0
-92 134 98 86 0
-92 134 50 86 0
-92 98 50 86 0
-93 135 99 51 0
-93 135 99 87 0
-93 135 51 87 0
-93 99 51 87 0
-94 136 100 52 0
-94 136 100 88 0
-94 136 52 88 0
-94 100 52 88 0
-95 137 101 53 0
-95 137 101 89 0
-95 137 53 89 0
-95 101 53 89 0
-96 138 102 54 0
-96 138 102 90 0
-96 138 54 90 0
-96 102 54 90 0
-91 -133 -97 -49 0
-91 -133 -97 -85 0
-91 -133 -49 -85 0
-91 -97 -49 -85 0
-92 -134 -98 -50 0
-92 -134 -98 -86 0
-92 -134 -50 -86 0
-92 -98 -50 -86 0
-93 -135 -99 -51 0
-93 -135 -99 -87 0
-93 -135 -51 -87 0
-93 -99 -51 -87 0
-94 -136 -100 -52 0
-94 -136 -100 -88 0
-94 -136 -52 -88 0
-94 -100 -52 -88 0
-95 -137 -101 -53 0
-95 -137 -101 -89 0
-95 -137 -53 -89 0
-95 -101 -53 -89 0
-96 -138 -102 -54 0
-96 -138 -102 -90 0
-96 -138 -54 -90 0
-96 -102 -54 -90 0
101 0
-97 0
-98 0
-99 0
-100 0
-102 0
143 107 59 95 0
-143 -107 0
-143 -59 0
-143 -95 0
-107 -59 0
-107 -95 0
-59 -95 0
-345 -346 0
-345 -347 0
-346 -347 0
-348 -349 0
-103 345 0
-103 348 0
-104 345 0
-104 349 0
-105 346 0
-105 348 0
-106 346 0
-106 349 0
-107 347 0
-107 348 0
-108 347 0
-108 349 0
-103 145 109 61 0
-103 145 109 97 0
-103 145 61 97 0
-103 109 61 97 0
-104 146 110 62 0
-104 146 110 98 0
-104 146 62 98 0
-104 110 62 98 0
-105 147 111 63 0
-105 147 111 99 0
-105 147 63 99 0
-105 111 63 99 0
-106 148 112 64 0
-106 148 112 100 0
-106 148 64 100 0
-106 112 64 100 0
-107 149 113 65 0
-107 149 113 101 0
-107 149 65 101 0
-107 113 65 101 0
-108 150 114 66 0
-108 150 114 102 0
-108 150 66 102 0
-108 114 66 102 0
-103 -145 -109 -61 0
-103 -145 -109 -97 0
-103 -145 -61 -97 0
-103 -109 -61 -97 0
-104 -146 -110 -62 0
-104 -146 -110 -98 0
-104 -146 -62 -98 0
-104 -110 -62 -98 0
-105 -147 -111 -63 0
-105 -147 -111 -99 0
-105 -147 -63 -99 0
-105 -111 -63 -99 0
-106 -148 -112 -64 0
-106 -148 -112 -100 0
-106 -148 -64 -100 0
-106 -112 -64 -100 0
-107 -149 -113 -65 0
-107 -149 -113 -101 0
-107 -149 -65 -101 0
-107 -113 -65 -101 0
-108 -150 -114 -66 0
-108 -150 -114 -102 0
-108 -150 -66 -102 0
-108 -114 -66 -102 0
-350 -351 0
-350 -352 0
-351 -352 0
-353 -354 0
-109 350 0
-109 353 0
-110 350 0
-110 354 0
-111 351 0
-111 353 0
-112 351 0
-112 354 0
-113 352 0
-113 353 0
-114 352 0
-114 354 0
-109 151 115 67 0
-109 151 115 103 0
-109 151 67 103 0
-109 115 67 103 0
-110 152 116 68 0
-110 152 116 104 0
-110 152 68 104 0
-110 116 68 104 0
-111 153 117 69 0
-111 153 117 105 0
-111 153 69 105 0
-111 117 69 105 0
-112 154 118 70 0
-112 154 118 106 0
-112 154 70 106 0
-112 118 70 106 0
-113 155 119 71 0
-113 155 119 107 0
-113 155 71 107 0
-113 119 71 107 0
-114 156 120 72 0
-114 156 120 108 0
-114 156 72 108 0
-114 120 72 108 0
-109 -151 -115 -67 0
-109 -151 -115 -103 0
-109 -151 -67 -103 0
-109 -115 -67 -103 0
-110 -152 -116 -68 0
-110 -152 -116 -104 0
-110 -152 -68 -104 0
-110 -116 -68 -104 0
-111 -153 -117 -69 0
-111 -153 -117 -105 0
-111 -153 -69 -105 0
-111 -117 -69 -105 0
-112 -154 -118 -70 0
-112 -154 -118 -106 0
-112 -154 -70 -106 0
-112 -118 -70 -106 0
-113 -155 -119 -71 0
-113 -155 -119 -107 0
-113 -155 -71 -107 0
-113 -119 -71 -107 0
-114 -156 -120 -72 0
-114 -156 -120 -108 0
-114 -156 -72 -108 0
-114 -120 -72 -108 0
-355 -356 0
-355 -357 0
-356 -357 0
-358 -359 0
-115 355 0
-115 358 0
-116 355 0
-116 359 0
-117 356 0
-117 358 0
-118 356 0
-118 359 0
-119 357 0
-119 358 0
-120 357 0
-120 359 0
-115 157 121 73 0
-115 157 121 109 0
-115 157 73 109 0
-115 121 73 109 0
-116 158 122 74 0
-116 158 122 110 0
-116 158 74 110 0
-116 122 74 110 0
-117 159 123 75 0
-117 159 123 111 0
-117 159 75 111 0
-117 123 75 111 0
-118 160 124 76 0
-118 160 124 112 0
-118 160 76 112 0
-118 124 76 112 0
-119 161 125 77 0
-119 161 125 113 0
-119 161 77 113 0
-119 125 77 113 0
-120 162 126 78 0
-120 162 126 114 0
-120 162 78 114 0
-120 126 78 114 0
-115 -157 -121 -73 0
-115 -157 -121 -109 0
-115 -157 -73 -109 0
-115 -121 -73 -109 0
-116 -158 -122 -74 0
-116 -158 -122 -110 0
-116 -158 -74 -110 0
-116 -122 -74 -110 0
-117 -159 -123 -75 0
-117 -159 -123 -111 0
-117 -159 -75 -111 0
-117 -123 -75 -111 0
-118 -160 -124 -76 0
-118 -160 -124 -112 0
-118 -160 -76 -112 0
-118 -124 -76 -112 0
-119 -161 -125 -77 0
-119 -161 -125 -113 0
-119 -161 -77 -113 0
-119 -125 -77 -113 0
-120 -162 -126 -78 0
-120 -162 -126 -114 0
-120 -162 -78 -114 0
-120 -126 -78 -114 0
-360 -361 0
-360 -362 0
-361 -362 0
-363 -364 0
-121 360 0
-121 363 0
-122 360 0
-122 364 0
-123 361 0
-123 363 0
-124 361 0
-124 364 0
-125 362 0
-125 363 0
-126 362 0
-126 364 0
-121 163 115 0
-121 163 79 0
-121 115 79 0
-122 164 116 0
-122 164 80 0
-122 116 80 0
-123 165 117 0
-123 165 81 0
-123 117 81 0
-124 166 118 0
-124 166 82 0
-124 118 82 0
-125 167 119 0
-125 167 83 0
-125 119 83 0
-126 168 120 0
-126 168 84 0
-126 120 84 0
-121 -163 -115 -79 0
-122 -164 -116 -80 0
-123 -165 -117 -81 0
-124 -166 -118 -82 0
-125 -167 -119 -83 0
-126 -168 -120 -84 0
-365 -366 0
-365 -367 0
-366 -367 0
-368 -369 0
-127 365 0
-127 368 0
-128 365 0
-128 369 0
-129 366 0
-129 368 0
-130 366 0
-130 369 0
-131 367 0
-131 368 0
-132 367 0
-132 369 0
-127 169 133 0
-127 169 85 0
-127 133 85 0
-128 170 134 0
-128 170 86 0
-128 134 86 0
-129 171 135 0
-129 171 87 0
-129 135 87 0
-130 172 136 0
-130 172 88 0
-130 136 88 0
-131 173 137 0
-131 173 89 0
-131 137 89 0
-132 174 138 0
-132 174 90 0
-132 138 90 0
-127 -169 -133 -85 0
-128 -170 -134 -86 0
-129 -171 -135 -87 0
-130 -172 -136 -88 0
-131 -173 -137 -89 0
-132 -174 -138 -90 0
-370 -371 0
-370 -372 0
-371 -372 0
-373 -374 0
-133 370 0
-133 373 0
-134 370 0
-134 374 0
-135 371 0
-135 373 0
-136 371 0
-136 374 0
-137 372 0
-137 373 0
-138 372 0
-138 374 0
-133 175 139 91 0
-133 175 139 127 0
-133 175 91 127 0
-133 139 91 127 0
-134 176 140 92 0
-134 176 140 128 0
-134 176 92 128 0
-134 140 92 128 0
-135 177 141 93 0
-135 177 141 129 0
-135 177 93 129 0
-135 141 93 129 0
-136 178 142 94 0
-136 178 142 130 0
-136 178 94 130 0
-136 142 94 130 0
-137 179 143 95 0
-137 179 143 131 0
-137 179 95 131 0
-137 143 95 131 0
-138 180 144 96 0
-138 180 144 132 0
-138 180 96 132 0
-138 144 96 132 0
-133 -175 -139 -91 0
-133 -175 -139 -127 0
-133 -175 -91 -127 0
-133 -139 -91 -127 0
-134 -176 -140 -92 0
-134 -176 -140 -128 0
-134 -176 -92 -128 0
-134 -140 -92 -128 0
-135 -177 -141 -93 0
-135 -177 -141 -129 0
-135 -177 -93 -129 0
-135 -141 -93 -129 0
-136 -178 -142 -94 0
-136 -178 -142 -130 0
-136 -178 -94 -130 0
-136 -142 -94 -130 0
-137 -179 -143 -95 0
-137 -179 -143 -131 0
-137 -179 -95 -131 0
-137 -143 -95 -131 0
-138 -180 -144 -96 0
-138 -180 -144 -132 0
-138 -180 -96 -132 0
-138 -144 -96 -132 0
-375 -376 0
-375 -377 0
-376 -377 0
-378 -379 0
-139 375 0
-139 378 0
-140 375 0
-140 379 0
-141 376 0
-141 378 0
-142 376 0
-142 379 0
-143 377 0
-143 378 0
-144 377 0
-144 379 0
-139 181 145 97 0
-139 181 145 133 0
-139 181 97 133 0
-139 145 97 133 0
-140 182 146 98 0
-140 182 146 134 0
-140 182 98 134 0
-140 146 98 134 0
-141 183 147 99 0
-141 183 147 135 0
-141 183 99 135 0
-141 147 99 135 0
-142 184 148 100 0
-142 184 148 136 0
-142 184 100 136 0
-142 148 100 136 0
-143 185 149 101 0
-143 185 149 137 0
-143 185 101 137 0
-143 149 101 137 0
-144 186 150 102 0
-144 186 150 138 0
-144 186 102 138 0
-144 150 102 138 0
-139 -181 -145 -97 0
-139 -181 -145 -133 0
-139 -181 -97 -133 0
-139 -145 -97 -133 0
-140 -182 -146 -98 0
-140 -182 -146 -134 0
-140 -182 -98 -134 0
-140 -146 -98 -134 0
-141 -183 -147 -99 0
-141 -183 -147 -135 0
-141 -183 -99 -135 0
-141 -147 -99 -135 0
-142 -184 -148 -100 0
-142 -184 -148 -136 0
-142 -184 -100 -136 0
-142 -148 -100 -136 0
-143 -185 -149 -101 0
-143 -185 -149 -137 0
-143 -185 -101 -137 0
-143 -149 -101 -137 0
-144 -186 -150 -102 0
-144 -186 -150 -138 0
-144 -186 -102 -138 0
-144 -150 -102 -138 0
-380 -381 0
-380 -382 0
-381 -382 0
-383 -384 0
-145 380 0
-145 383 0
-146 380 0
-146 384 0
-147 381 0
-147 383 0
-148 381 0
-148 384 0
-149 382 0
-149 383 0
-150 382 0
-150 384 0
-145 187 151 103 0
-145 187 151 139 0
-145 187 103 139 0
-145 151 103 139 0
-146 188 152 104 0
-146 188 152 140 0
-146 188 104 140 0
-146 152 104 140 0
-147 189 153 105 0
-147 189 153 141 0
-147 189 105 141 0
-147 153 105 141 0
-148 190 154 106 0
-148 190 154 142 0
-148 190 106 142 0
-148 154 106 142 0
-149 191 155 107 0
-149 191 155 143 0
-149 191 107 143 0
-149 155 107 143 0
-150 192 156 108 0
-150 192 156 144 0
-150 192 108 144 0
-150 156 108 144 0
-145 -187 -151 -103 0
-145 -187 -151 -139 0
-145 -187 -103 -139 0
-145 -151 -103 -139 0
-146 -188 -152 -104 0
-146 -188 -152 -140 0
-146 -188 -104 -140 0
-146 -152 -104 -140 0
-147 -189 -153 -105 0
-147 -189 -153 -141 0
-147 -189 -105 -141 0
-147 -153 -105 -141 0
-148 -190 -154 -106 0
-148 -190 -154 -142 0
-148 -190 -106 -142 0
-148 -154 -106 -142 0
-149 -191 -155 -107 0
-149 -191 -155 -143 0
-149 -191 -107 -143 0
-149 -155 -107 -143 0
-150 -192 -156 -108 0
-150 -192 -156 -144 0
-150 -192 -108 -144 0
-150 -156 -108 -144 0
152 0
-151 0
-153 0
-154 0
-155 0
-156 0
194 158 110 146 0
-194 -158 0
-194 -110 0
-194 -146 0
-158 -110 0
-158 -146 0
-110 -146 0
160 0
-157 0
-158 0
-159 0
-161 0
-162 0
202 166 118 154 0
-202 -166 0
-202 -118 0
-202 -154 0
-166 -118 0
-166 -154 0
-118 -154 0
-385 -386 0
-385 -387 0
-386 -387 0
-388 -389 0
-163 385 0
-163 388 0
-164 385 0
-164 389 0
-165 386 0
-165 388 0
-166 386 0
-166 389 0
-167 387 0
-167 388 0
-168 387 0
-168 389 0
-163 205 157 0
-163 205 121 0
-163 157 121 0
-164 206 158 0
-164 206 122 0
-164 158 122 0
-165 207 159 0
-165 207 123 0
-165 159 123 0
-166 208 160 0
-166 208 124 0
-166 160 124 0
-167 209 161 0
-167 209 125 0
-167 161 125 0
-168 210 162 0
-168 210 126 0
-168 162 126 0
-163 -205 -157 -121 0
-164 -206 -158 -122 0
-165 -207 -159 -123 0
-166 -208 -160 -124 0
-167 -209 -161 -125 0
-168 -210 -162 -126 0
-390 -391 0
-390 -392 0
-391 -392 0
-393 -394 0
-169 390 0
-169 393 0
-170 390 0
-170 394 0
-171 391 0
-171 393 0
-172 391 0
-172 394 0
-173 392 0
-173 393 0
-174 392 0
-174 394 0
-169 211 175 0
-169 211 127 0
-169 175 127 0
-170 212 176 0
-170 212 128 0
-170 176 128 0
-171 213 177 0
-171 213 129 0
-171 177 129 0
-172 214 178 0
-172 214 130 0
-172 178 130 0
-173 215 179 0
-173 215 131 0
-173 179 131 0
-174 216 180 0
-174 216 132 0
-174 180 132 0
-169 -211 -175 -127 0
-170 -212 -176 -128 0
-171 -213 -177 -129 0
-172 -214 -178 -130 0
-173 -215 -179 -131 0
-174 -216 -180 -132 0
-395 -396 0
-395 -397 0
-396 -397 0
-398 -399 0
-175 395 0
-175 398 0
-176 395 0
-176 399 0
-177 396 0
-177 398 0
-178 396 0
-178 399 0
-179 397 0
-179 398 0
-180 397 0
-180 399 0
-175 217 181 133 0
-175 217 181 169 0
-175 217 133 169 0
-175 181 133 169 0
-176 218 182 134 0
-176 218 182 170 0
-176 218 134 170 0
-176 182 134 170 0
-177 219 183 135 0
-177 219 183 171 0
-177 219 135 171 0
-177 183 135 171 0
-178 220 184 136 0
-178 220 184 172 0
-178 220 136 172 0
-178 184 136 172 0
-179 221 185 137 0
-179 221 185 173 0
-179 221 137 173 0
-179 185 137 173 0
-180 222 186 138 0
-180 222 186 174 0
-180 222 138 174 0
-180 186 138 174 0
-175 -217 -181 -133 0
-175 -217 -181 -169 0
-175 -217 -133 -169 0
-175 -181 -133 -169 0
-176 -218 -182 -134 0
-176 -218 -182 -170 0
-176 -218 -134 -170 0
-176 -182 -134 -170 0
-177 -219 -183 -135 0
-177 -219 -183 -171 0
-177 -219 -135 -171 0
-177 -183 -135 -171 0
-178 -220 -184 -136 0
-178 -220 -184 -172 0
-178 -220 -136 -172 0
-178 -184 -136 -172 0
-179 -221 -185 -137 0
-179 -221 -185 -173 0
-179 -221 -137 -173 0
-179 -185 -137 -173 0
-180 -222 -186 -138 0
-180 -222 -186 -174 0
-180 -222 -138 -174 0
-180 -186 -138 -174 0
-400 -401 0
-400 -402 0
-401 -402 0
-403 -404 0
-181 400 0
-181 403 0
-182 400 0
-182 404 0
-183 401 0
-183 403 0
-184 401 0
-184 404 0
-185 402 0
-185 403 0
-186 402 0
-186 404 0
-181 223 187 139 0
-181 223 187 175 0
-181 223 139 175 0
-181 187 139 175 0
-182 224 188 140 0
-182 224 188 176 0
-182 224 140 176 0
-182 188 140 176 0
-183 225 189 141 0
-183 225 189 177 0
-183 225 141 177 0
-183 189 141 177 0
-184 226 190 142 0
-184 226 190 178 0
-184 226 142 178 0
-184 190 142 178 0
-185 227 191 143 0
-185 227 191 179 0
-185 227 143 179 0
-185 191 143 179 0
-186 228 192 144 0
-186 228 192 180 0
-186 228 144 180 0
-186 192 144 180 0
-181 -223 -187 -139 0
-181 -223 -187 -175 0
-181 -223 -139 -175 0
-181 -187 -139 -175 0
-182 -224 -188 -140 0
-182 -224 -188 -176 0
-182 -224 -140 -176 0
-182 -188 -140 -176 0
-183 -225 -189 -141 0
-183 -225 -189 -177 0
-183 -225 -141 -177 0
-183 -189 -141 -177 0
-184 -226 -190 -142 0
-184 -226 -190 -178 0
-184 -226 -142 -178 0
-184 -190 -142 -178 0
-185 -227 -191 -143 0
-185 -227 -191 -179 0
-185 -227 -143 -179 0
-185 -191 -143 -179 0
-186 -228 -192 -144 0
-186 -228 -192 -180 0
-186 -228 -144 -180 0
-186 -192 -144 -180 0
-405 -406 0
-405 -407 0
-406 -407 0
-408 -409 0
-187 405 0
-187 408 0
-188 405 0
-188 409 0
-189 406 0
-189 408 0
-190 406 0
-190 409 0
-191 407 0
-191 408 0
-192 407 0
-192 409 0
-187 229 193 145 0
-187 229 193 181 0
-187 229 145 181 0
-187 193 145 181 0
-188 230 194 146 0
-188 230 194 182 0
-188 230 146 182 0
-188 194 146 182 0
-189 231 195 147 0
-189 231 195 183 0
-189 231 147 183 0
-189 195 147 183 0
-190 232 196 148 0
-190 232 196 184 0
-190 232 148 184 0
-190 196 148 184 0
-191 233 197 149 0
-191 233 197 185 0
-191 233 149 185 0
-191 197 149 185 0
-192 234 198 150 0
-192 234 198 186 0
-192 234 150 186 0
-192 198 150 186 0
-187 -229 -193 -145 0
-187 -229 -193 -181 0
-187 -229 -145 -181 0
-187 -193 -145 -181 0
-188 -230 -194 -146 0
-188 -230 -194 -182 0
-188 -230 -146 -182 0
-188 -194 -146 -182 0
-189 -231 -195 -147 0
-189 -231 -195 -183 0
-189 -231 -147 -183 0
-189 -195 -147 -183 0
-190 -232 -196 -148 0
-190 -232 -196 -184 0
-190 -232 -148 -184 0
-190 -196 -148 -184 0
-191 -233 -197 -149 0
-191 -233 -197 -185 0
-191 -233 -149 -185 0
-191 -197 -149 -185 0
-192 -234 -198 -150 0
-192 -234 -198 -186 0
-192 -234 -150 -186 0
-192 -198 -150 -186 0
-410 -411 0
-410 -412 0
-411 -412 0
-413 -414 0
-193 410 0
-193 413 0
-194 410 0
-194 414 0
-195 411 0
-195 413 0
-196 411 0
-196 414 0
-197 412 0
-197 413 0
-198 412 0
-198 414 0
-193 235 199 151 0
-193 235 199 187 0
-193 235 151 187 0
-193 199 151 187 0
-194 236 200 152 0
-194 236 200 188 0
-194 236 152 188 0
-194 200 152 188 0
-195 237 201 153 0
-195 237 201 189 0
-195 237 153 189 0
-195 201 153 189 0
-196 238 202 154 0
-196 238 202 190 0
-196 238 154 190 0
-196 202 154 190 0
-197 239 203 155 0
-197 239 203 191 0
-197 239 155 191 0
-197 203 155 191 0
-198 240 204 156 0
-198 240 204 192 0
-198 240 156 192 0
-198 204 156 192 0
-193 -235 -199 -151 0
-193 -235 -199 -187 0
-193 -235 -151 -187 0
-193 -199 -151 -187 0
-194 -236 -200 -152 0
-194 -236 -200 -188 0
-194 -236 -152 -188 0
-194 -200 -152 -188 0
-195 -237 -201 -153 0
-195 -237 -201 -189 0
-195 -237 -153 -189 0
-195 -201 -153 -189 0
-196 -238 -202 -154 0
-196 -238 -202 -190 0
-196 -238 -154 -190 0
-196 -202 -154 -190 0
-197 -239 -203 -155 0
-197 -239 -203 -191 0
-197 -239 -155 -191 0
-197 -203 -155 -191 0
-198 -240 -204 -156 0
-198 -240 -204 -192 0
-198 -240 -156 -192 0
-198 -204 -156 -192 0
-415 -416 0
-415 -417 0
-416 -417 0
-418 -419 0
-199 415 0
-199 418 0
-200 415 0
-200 419 0
-201 416 0
-201 418 0
-202 416 0
-202 419 0
-203 417 0
-203 418 0
-204 417 0
-204 419 0
-199 241 205 157 0
-199 241 205 193 0
-199 241 157 193 0
-199 205 157 193 0
-200 242 206 158 0
-200 242 206 194 0
-200 242 158 194 0
-200 206 158 194 0
-201 243 207 159 0
-201 243 207 195 0
-201 243 159 195 0
-201 207 159 195 0
-202 244 208 160 0
-202 244 208 196 0
-202 244 160 196 0
-202 208 160 196 0
-203 245 209 161 0
-203 245 209 197 0
-203 245 161 197 0
-203 209 161 197 0
-204 246 210 162 0
-204 246 210 198 0
-204 246 162 198 0
-204 210 162 198 0
-199 -241 -205 -157 0
-199 -241 -205 -193 0
-199 -241 -157 -193 0
-199 -205 -157 -193 0
-200 -242 -206 -158 0
-200 -242 -206 -194 0
-200 -242 -158 -194 0
-200 -206 -158 -194 0
-201 -243 -207 -159 0
-201 -243 -207 -195 0
-201 -243 -159 -195 0
-201 -207 -159 -195 0
-202 -244 -208 -160 0
-202 -244 -208 -196 0
-202 -244 -160 -196 0
-202 -208 -160 -196 0
-203 -245 -209 -161 0
-203 -245 -209 -197 0
-203 -245 -161 -197 0
-203 -209 -161 -197 0
-204 -246 -210 -162 0
-204 -246 -210 -198 0
-204 -246 -162 -198 0
-204 -210 -162 -198 0
-420 -421 0
-420 -422 0
-421 -422 0
-423 -424 0
-205 420 0
-205 423 0
-206 420 0
-206 424 0
-207 421 0
-207 423 0
-208 421 0
-208 424 0
-209 422 0
-209 423 0
-210 422 0
-210 424 0
-205 247 199 0
-205 247 163 0
-205 199 163 0
-206 248 200 0
-206 248 164 0
-206 200 164 0
-207 249 201 0
-207 249 165 0
-207 201 165 0
-208 250 202 0
-208 250 166 0
-208 202 166 0
-209 251 203 0
-209 251 167 0
-209 203 167 0
-210 252 204 0
-210 252 168 0
-210 204 168 0
-205 -247 -199 -163 0
-206 -248 -200 -164 0
-207 -249 -201 -165 0
-208 -250 -202 -166 0
-209 -251 -203 -167 0
-210 -252 -204 -168 0
215 0
-211 0
-212 0
-213 0
-214 0
-216 0
257 221 173 0
-257 -221 0
-257 -173 0
-221 -173 0
-425 -426 0
-425 -427 0
-426 -427 0
-428 -429 0
-217 425 0
-217 428 0
-218 425 0
-218 429 0
-219 426 0
-219 428 0
-220 426 0
-220 429 0
-221 427 0
-221 428 0
-222 427 0
-222 429 0
-217 259 223 175 0
-217 259 223 211 0
-217 259 175 211 0
-217 223 175 211 0
-218 260 224 176 0
-218 260 224 212 0
-218 260 176 212 0
-218 224 176 212 0
-219 261 225 177 0
-219 261 225 213 0
-219 261 177 213 0
-219 225 177 213 0
-220 262 226 178 0
-220 262 226 214 0
-220 262 178 214 0
-220 226 178 214 0
-221 263 227 179 0
-221 263 227 215 0
-221 263 179 215 0
-221 227 179 215 0
-222 264 228 180 0
-222 264 228 216 0
-222 264 180 216 0
-222 228 180 216 0
-217 -259 -223 -175 0
-217 -259 -223 -211 0
-217 -259 -175 -211 0
-217 -223 -175 -211 0
-218 -260 -224 -176 0
-218 -260 -224 -212 0
-218 -260 -176 -212 0
-218 -224 -176 -212 0
-219 -261 -225 -177 0
-219 -261 -225 -213 0
-219 -261 -177 -213 0
-219 -225 -177 -213 0
-220 -262 -226 -178 0
-220 -262 -226 -214 0
-220 -262 -178 -214 0
-220 -226 -178 -214 0
-221 -263 -227 -179 0
-221 -263 -227 -215 0
-221 -263 -179 -215 0
-221 -227 -179 -215 0
-222 -264 -228 -180 0
-222 -264 -228 -216 0
-222 -264 -180 -216 0
-222 -228 -180 -216 0
-430 -431 0
-430 -432 0
-431 -432 0
-433 -434 0
-223 430 0
-223 433 0
-224 430 0
-224 434 0
-225 431 0
-225 433 0
-226 431 0
-226 434 0
-227 432 0
-227 433 0
-228 432 0
-228 434 0
-223 265 229 181 0
-223 265 229 217 0
-223 265 181 217 0
-223 229 181 217 0
-224 266 230 182 0
-224 266 230 218 0
-224 266 182 218 0
-224 230 182 218 0
-225 267 231 183 0
-225 267 231 219 0
-225 267 183 219 0
-225 231 183 219 0
-226 268 232 184 0
-226 268 232 220 0
-226 268 184 220 0
-226 232 184 220 0
-227 269 233 185 0
-227 269 233 221 0
-227 269 185 221 0
-227 233 185 221 0
-228 270 234 186 0
-228 270 234 222 0
-228 270 186 222 0
-228 234 186 222 0
-223 -265 -229 -181 0
-223 -265 -229 -217 0
-223 -265 -181 -217 0
-223 -229 -181 -217 0
-224 -266 -230 -182 0
-224 -266 -230 -218 0
-224 -266 -182 -218 0
-224 -230 -182 -218 0
-225 -267 -231 -183 0
-225 -267 -231 -219 0
-225 -267 -183 -219 0
-225 -231 -183 -219 0
-226 -268 -232 -184 0
-226 -268 -232 -220 0
-226 -268 -184 -220 0
-226 -232 -184 -220 0
-227 -269 -233 -185 0
-227 -269 -233 -221 0
-227 -269 -185 -221 0
-227 -233 -185 -221 0
-228 -270 -234 -186 0
-228 -270 -234 -222 0
-228 -270 -186 -222 0
-228 -234 -186 -222 0
232 0
-229 0
-230 0
-231 0
-233 0
-234 0
274 238 190 226 0
-274 -238 0
-274 -190 0
-274 -226 0
-238 -190 0
-238 -226 0
-190 -226 0
-435 -436 0
-435 -437 0
-436 -437 0
-438 -439 0
-235 435 0
-235 438 0
-236 435 0
-236 439 0
-237 436 0
-237 438 0
-238 436 0
-238 439 0
-239 437 0
-239 438 0
-240 437 0
-240 439 0
-235 277 241 193 0
-235 277 241 229 0
-235 277 193 229 0
-235 241 193 229 0
-236 278 242 194 0
-236 278 242 230 0
-236 278 194 230 0
-236 242 194 230 0
-237 279 243 195 0
-237 279 243 231 0
-237 279 195 231 0
-237 243 195 231 0
-238 280 244 196 0
-238 280 244 232 0
-238 280 196 232 0
-238 244 196 232 0
-239 281 245 197 0
-239 281 245 233 0
-239 281 197 233 0
-239 245 197 233 0
-240 282 246 198 0
-240 282 246 234 0
-240 282 198 234 0
-240 246 198 234 0
-235 -277 -241 -193 0
-235 -277 -241 -229 0
-235 -277 -193 -229 0
-235 -241 -193 -229 0
-236 -278 -242 -194 0
-236 -278 -242 -230 0
-236 -278 -194 -230 0
-236 -242 -194 -230 0
-237 -279 -243 -195 0
-237 -279 -243 -231 0
-237 -279 -195 -231 0
-237 -243 -195 -231 0
-238 -280 -244 -196 0
-238 -280 -244 -232 0
-238 -280 -196 -232 0
-238 -244 -196 -232 0
-239 -281 -245 -197 0
-239 -281 -245 -233 0
-239 -281 -197 -233 0
-239 -245 -197 -233 0
-240 -282 -246 -198 0
-240 -282 -246 -234 0
-240 -282 -198 -234 0
-240 -246 -198 -234 0
-440 -441 0
-440 -442 0
-441 -442 0
-443 -444 0
-241 440 0
-241 443 0
-242 440 0
-242 444 0
-243 441 0
-243 443 0
-244 441 0
-244 444 0
-245 442 0
-245 443 0
-246 442 0
-246 444 0
-241 283 247 199 0
-241 283 247 235 0
-241 283 199 235 0
-241 247 199 235 0
-242 284 248 200 0
-242 284 248 236 0
-242 284 200 236 0
-242 248 200 236 0
-243 285 249 201 0
-243 285 249 237 0
-243 285 201 237 0
-243 249 201 237 0
-244 286 250 202 0
-244 286 250 238 0
-244 286 202 238 0
-244 250 202 238 0
-245 287 251 203 0
-245 287 251 239 0
-245 287 203 239 0
-245 251 203 239 0
-246 288 252 204 0
-246 288 252 240 0
-246 288 204 240 0
-246 252 204 240 0
-241 -283 -247 -199 0
-241 -283 -247 -235 0
-241 -283 -199 -235 0
-241 -247 -199 -235 0
-242 -284 -248 -200 0
-242 -284 -248 -236 0
-242 -284 -200 -236 0
-242 -248 -200 -236 0
-243 -285 -249 -201 0
-243 -285 -249 -237 0
-243 -285 -201 -237 0
-243 -249 -201 -237 0
-244 -286 -250 -202 0
-244 -286 -250 -238 0
-244 -286 -202 -238 0
-244 -250 -202 -238 0
-245 -287 -251 -203 0
-245 -287 -251 -239 0
-245 -287 -203 -239 0
-245 -251 -203 -239 0
-246 -288 -252 -204 0
-246 -288 -252 -240 0
-246 -288 -204 -240 0
-246 -252 -204 -240 0
-445 -446 0
-445 -447 0
-446 -447 0
-448 -449 0
-247 445 0
-247 448 0
-248 445 0
-248 449 0
-249 446 0
-249 448 0
-250 446 0
-250 449 0
-251 447 0
-251 448 0
-252 447 0
-252 449 0
-247 289 241 0
-247 289 205 0
-247 241 205 0
-248 290 242 0
-248 290 206 0
-248 242 206 0
-249 291 243 0
-249 291 207 0
-249 243 207 0
-250 292 244 0
-250 292 208 0
-250 244 208 0
-251 293 245 0
-251 293 209 0
-251 245 209 0
-252 294 246 0
-252 294 210 0
-252 246 210 0
-247 -289 -241 -205 0
-248 -290 -242 -206 0
-249 -291 -243 -207 0
-250 -292 -244 -208 0
-251 -293 -245 -209 0
-252 -294 -246 -210 0
255 0
-253 0
-254 0
-256 0
-257 0
-258 0
213 261 0
-213 -261 0
-450 -451 0
-450 -452 0
-451 -452 0
-453 -454 0
-259 450 0
-259 453 0
-260 450 0
-260 454 0
-261 451 0
-261 453 0
-262 451 0
-262 454 0
-263 452 0
-263 453 0
-264 452 0
-264 454 0
-259 217 265 0
-259 217 253 0
-259 265 253 0
-260 218 266 0
-260 218 254 0
-260 266 254 0
-261 219 267 0
-261 219 255 0
-261 267 255 0
-262 220 268 0
-262 220 256 0
-262 268 256 0
-263 221 269 0
-263 221 257 0
-263 269 257 0
-264 222 270 0
-264 222 258 0
-264 270 258 0
-259 -217 -265 -253 0
-260 -218 -266 -254 0
-261 -219 -267 -255 0
-262 -220 -268 -256 0
-263 -221 -269 -257 0
-264 -222 -270 -258 0
-455 -456 0
-455 -457 0
-456 -457 0
-458 -459 0
-265 455 0
-265 458 0
-266 455 0
-266 459 0
-267 456 0
-267 458 0
-268 456 0
-268 459 0
-269 457 0
-269 458 0
-270 457 0
-270 459 0
-265 223 271 0
-265 223 259 0
-265 271 259 0
-266 224 272 0
-266 224 260 0
-266 272 260 0
-267 225 273 0
-267 225 261 0
-267 273 261 0
-268 226 274 0
-268 226 262 0
-268 274 262 0
-269 227 275 0
-269 227 263 0
-269 275 263 0
-270 228 276 0
-270 228 264 0
-270 276 264 0
-265 -223 -271 -259 0
-266 -224 -272 -260 0
-267 -225 -273 -261 0
-268 -226 -274 -262 0
-269 -227 -275 -263 0
-270 -228 -276 -264 0
-460 -461 0
-460 -462 0
-461 -462 0
-463 -464 0
-271 460 0
-271 463 0
-272 460 0
-272 464 0
-273 461 0
-273 463 0
-274 461 0
-274 464 0
-275 462 0
-275 463 0
-276 462 0
-276 464 0
-271 229 277 0
-271 229 265 0
-271 277 265 0
-272 230 278 0
-272 230 266 0
-272 278 266 0
-273 231 279 0
-273 231 267 0
-273 279 267 0
-274 232 280 0
-274 232 268 0
-274 280 268 0
-275 233 281 0
-275 233 269 0
-275 281 269 0
-276 234 282 0
-276 234 270 0
-276 282 270 0
-271 -229 -277 -265 0
-272 -230 -278 -266 0
-273 -231 -279 -267 0
-274 -232 -280 -268 0
-275 -233 -281 -269 0
-276 -234 -282 -270 0
-465 -466 0
-465 -467 0
-466 -467 0
-468 -469 0
-277 465 0
-277 468 0
-278 465 0
-278 469 0
-279 466 0
-279 468 0
-280 466 0
-280 469 0
-281 467 0
-281 468 0
-282 467 0
-282 469 0
-277 235 283 0
-277 235 271 0
-277 283 271 0
-278 236 284 0
-278 236 272 0
-278 284 272 0
-279 237 285 0
-279 237 273 0
-279 285 273 0
-280 238 286 0
-280 238 274 0
-280 286 274 0
-281 239 287 0
-281 239 275 0
-281 287 275 0
-282 240 288 0
-282 240 276 0
-282 288 276 0
-277 -235 -283 -271 0
-278 -236 -284 -272 0
-279 -237 -285 -273 0
-280 -238 -286 -274 0
-281 -239 -287 -275 0
-282 -240 -288 -276 0
-470 -471 0
-470 -472 0
-471 -472 0
-473 -474 0
-283 470 0
-283 473 0
-284 470 0
-284 474 0
-285 471 0
-285 473 0
-286 471 0
-286 474 0
-287 472 0
-287 473 0
-288 472 0
-288 474 0
-283 241 289 0
-283 241 277 0
-283 289 277 0
-284 242 290 0
-284 242 278 0
-284 290 278 0
-285 243 291 0
-285 243 279 0
-285 291 279 0
-286 244 292 0
-286 244 280 0
-286 292 280 0
-287 245 293 0
-287 245 281 0
-287 293 281 0
-288 246 294 0
-288 246 282 0
-288 294 282 0
-283 -241 -289 -277 0
-284 -242 -290 -278 0
-285 -243 -291 -279 0
-286 -244 -292 -280 0
-287 -245 -293 -281 0
-288 -246 -294 -282 0
-475 -476 0
-475 -477 0
-476 -477 0
-478 -479 0
-289 475 0
-289 478 0
-290 475 0
-290 479 0
-291 476 0
-291 478 0
-292 476 0
-292 479 0
-293 477 0
-293 478 0
-294 477 0
-294 479 0
-289 247 0
-289 283 0
-290 248 0
-290 284 0
-291 249 0
-291 285 0
-292 250 0
-292 286 0
-293 251 0
-293 287 0
-294 252 0
-294 288 0